\ Model ajuste
\ LP format - for model browsing. Use MPS format to capture full model detail.
Minimize
  - 2.764180450357705e+07 coef_ajuste + 1.375617302062417e+07 Constant + [
   2.7771872128550168e+07 coef_ajuste ^2 ] / 2 
Subject To
Bounds
 coef_ajuste <= 1
 Constant = 1
End
